81 81
52 39
43 34
16 32
3 22
48 29
60 27
9 16
39 34
58 9
30 6
32 1
8 4
73 28
80 17
65 21
79 25
12 31
23 10
5 26
36 33
53 30
2 13
77 13
45 15
34 7
1 22
42 35
7 30
50 16
44 36
14 5
33 38
49 14
24 26
6 15
71 28
22 23
69 19
62 3
75 24
17 2
63 11
70 7
29 38
28 27
46 9
67 18
10 12
64 6
15 40
19 25
18 23
26 8
55 1
40 19
56 35
20 37
35 2
59 32
11 24
4 39
51 41
81 20
66 18
68 4
76 40
25 8
13 37
37 29
61 11
31 31
21 33
47 36
57 17
74 5
54 12
27 10
41 20
72 21
38 3
78 14
